Route #1: 1 5 35 18 40 13 4 7 23 1
Route #2: 1 8 6 33 22 27 11 12 43 38 25 1
Route #3: 1 3 42 37 10 39 15 14 30 1
Route #4: 1 32 9 16 29 28 20 1
Route #5: 1 26 41 44 24 31 1
Route #6: 1 34 17 21 19 36 2 1
cost 1071.6804456046202